NAME : knights-tour
COMMENT : Hamiltonian cycle problem (Erbacci) 
TYPE : HCP
DIMENSION : 30
EDGE_DATA_FORMAT : EDGE_LIST
EDGE_DATA_SECTION
	30  18 
  30  9 
  29  17 
  29  8 
  29  10 
  28  16 
  28  20 
  28  7 
  28  9 
  27  15 
  27  19 
  27  6 
  27  8 
  26  14 
  26  18 
  26  5 
  26  7 
  25  13 
  25  17 
  25  4 
  25  6 
  24  12 
  24  16 
  24  3 
  24  5 
  23  11 
  23  15 
  23  2 
  23  4 
  22  14 
  22  1 
  22  3 
  21  13 
  21  2 
  20  8 
  19  7 
  18  6 
  18  10 
  17  5 
  17  9 
  16  4 
  16  8 
  15  3 
  15  7 
  14  2 
  14  6 
  13  1 
  13  5 
  12  4 
  11  3 
-1
EOF
